p cnf 14 28
14 -13 8 0
-14 12 -3 0
-14 7 4 0
-14 -6 -1 0
-14 6 1 0
14 -5 3 0
-13 12 10 0
-13 11 6 0
13 -8 -1 0
-13 4 -1 0
12 11 -1 0
12 8 -1 0
12 4 3 0
-11 10 -2 0
-11 -9 -7 0
-11 9 -1 0
-11 -4 -2 0
-11 4 -2 0
11 -3 1 0
10 -8 7 0
-9 -6 4 0
9 2 -1 0
-8 7 -4 0
-8 5 2 0
-8 4 3 0
-7 -5 -4 0
-7 -4 2 0
6 3 2 0
